Traveling Salesman Problem/TSP_generados/Aleatorio1620390992_12.tsp
NAME: Aleatorio1620390992_12.tsp
COMMENT: Randomly generated scenario
TYPE: TSP
DIMENSION: 12
EDGE_WEIGHT_TYPE: ATT
NODE_COORD_SECTION
1 17.14 44.37
2 36.64 30.87
3 44.12 27.39
4 37.0 27.94
5 35.58 49.74
6 19.97 23.59
7 38.95 4.09
8 36.23 46.87
9 6.02 26.48
10 49.95 6.34
11 38.34 27.68
12 15.81 20.74
