Traveling Salesman Problem/TSP_generados/Aleatorio1620390992_12.opt.tour
NAME: Aleatorio1620390992_12.opt.tour
COMMENT: Optimal solution for Aleatorio1620390992_12 (145.99597868141623)
TYPE: TOUR
DIMENSION: 12
TOUR_SECTION
1 9 12 6 7 10 3 11 4 2 8 5
-1
EOF
